(set-info :source |
 Generated by Alive 0.1
 More info in N. P. Lopes, D. Menendez, S. Nagarakatte, J. Regehr.
 Provably Correct Peephole Optimizations with Alive. In PLDI'15.
|)

(set-info :status unknown)
(declare-fun %D () (_ BitVec 35))
(declare-fun %C () (_ BitVec 35))
(declare-fun %Cond () (_ BitVec 1))
(assert
 (let ((?x206423 ((_ sign_extend 34) %Cond)))
 (let ((?x264748 (bvxor ?x206423 (_ bv34359738367 35))))
 (let ((?x274117 (bvand ?x264748 %D)))
 (let ((?x202696 (bvand ?x206423 %C)))
 (and (distinct (bvor ?x202696 ?x274117) (ite (= %Cond (_ bv1 1)) %C %D)) true))))))
(check-sat)
